m = 6; % number of couriers
n = 8; % number of packages

l = [17, 8, 15, 8, 8, 10]; % maximum carriable weight per courier
s = [3, 4, 6, 5, 9, 7, 8, 4]; % weight of each package

D = % distance matrix 
	 [| 5, 11, 7, 6, 3, 3, 4, 6, 10
	 | 12, 4, 5, 11, 10, 12, 5, 11, 11
	 | 7, 4, 3, 5, 12, 7, 12, 6, 12
	 | 8, 7, 4, 12, 9, 9, 11, 6, 9
	 | 11, 11, 3, 7, 7, 8, 10, 10, 8
	 | 8, 11, 6, 8, 5, 3, 10, 4, 8
	 | 10, 12, 9, 5, 8, 5, 8, 12, 11
	 | 5, 6, 8, 5, 7, 10, 6, 5, 8
	 | 11, 6, 5, 5, 8, 12, 12, 10, 9
	 |];